1991204
17,56,32,51,21,20,2,23,46,47,44,35,58,64,3,62,15,27,49,36,50,34,61,38,52,67,14,8,57,7,26,16,1,19,12,53,0,60,41,11,31,39,29,40,28,59,18,48,22,4,55,24,5,63,37,42,45,54,33,10,25,65,6,66,30,43,13,9